1600 3200
1 2 1
1 41 3
2 3 3
2 42 2
3 4 5
3 43 2
4 5 2
4 44 1
5 6 2
5 45 5
6 7 1
6 46 3
7 8 1
7 47 3
8 9 5
8 48 5
9 10 1
9 49 2
10 11 2
10 50 4
11 12 5
11 51 1
12 13 5
12 52 3
13 14 2
13 53 4
14 15 3
14 54 5
15 16 3
15 55 4
16 17 3
16 56 2
17 18 2
17 57 4
18 19 5
18 58 5
19 20 4
19 59 3
20 21 3
20 60 1
21 22 2
21 61 5
22 23 2
22 62 5
23 24 1
23 63 4
24 25 1
24 64 4
25 26 1
25 65 1
26 27 3
26 66 2
27 28 2
27 67 3
28 29 3
28 68 4
29 30 4
29 69 4
30 31 5
30 70 1
31 32 1
31 71 2
32 33 1
32 72 4
33 34 1
33 73 3
34 35 1
34 74 3
35 36 4
35 75 2
36 37 3
36 76 3
37 38 1
37 77 1
38 39 4
38 78 1
39 40 4
39 79 1
40 80 2
41 42 2
41 81 1
42 43 3
42 82 4
43 44 4
43 83 1
44 45 1
44 84 4
45 46 1
45 85 3
46 47 5
46 86 1
47 48 4
47 87 4
48 49 4
48 88 1
49 50 5
49 89 1
50 51 1
50 90 1
51 52 4
51 91 5
52 53 3
52 92 3
53 54 1
53 93 1
54 55 5
54 94 3
55 56 1
55 95 3
56 57 2
56 96 3
57 58 3
57 97 1
58 59 1
58 98 3
59 60 4
59 99 4
60 61 5
60 100 1
61 62 5
61 101 3
62 63 3
62 102 3
63 64 5
63 103 4
64 65 1
64 104 1
65 66 2
65 105 5
66 67 3
66 106 3
67 68 3
67 107 1
68 69 1
68 108 2
69 70 1
69 109 5
70 71 1
70 110 2
71 72 3
71 111 1
72 73 2
72 112 3
73 74 3
73 113 4
74 75 4
74 114 2
75 76 2
75 115 1
76 77 4
76 116 3
77 78 3
77 117 1
78 79 5
78 118 1
79 80 3
79 119 1
80 120 4
81 82 1
81 121 4
82 83 2
82 122 3
83 84 3
83 123 2
84 85 1
84 124 1
85 86 1
85 125 4
86 87 3
86 126 5
87 88 2
87 127 3
88 89 2
88 128 3
89 90 3
89 129 1
90 91 5
90 130 1
91 92 1
91 131 1
92 93 3
92 132 2
93 94 4
93 133 5
94 95 2
94 134 5
95 96 2
95 135 4
96 97 3
96 136 5
97 98 5
97 137 4
98 99 1
98 138 4
99 100 4
99 139 3
100 101 2
100 140 3
101 102 1
101 141 4
102 103 3
102 142 5
103 104 4
103 143 3
104 105 1
104 144 5
105 106 5
105 145 1
106 107 1
106 146 1
107 108 4
107 147 4
108 109 5
108 148 3
109 110 2
109 149 3
110 111 5
110 150 3
111 112 3
111 151 2
112 113 2
112 152 1
113 114 4
113 153 5
114 115 4
114 154 3
115 116 1
115 155 3
116 117 4
116 156 3
117 118 3
117 157 3
118 119 5
118 158 5
119 120 1
119 159 2
120 160 1
121 122 4
121 161 1
122 123 4
122 162 4
123 124 3
123 163 5
124 125 4
124 164 2
125 126 4
125 165 5
126 127 3
126 166 2
127 128 4
127 167 2
128 129 3
128 168 2
129 130 2
129 169 2
130 131 3
130 170 3
131 132 1
131 171 3
132 133 1
132 172 5
133 134 1
133 173 5
134 135 2
134 174 5
135 136 4
135 175 2
136 137 2
136 176 3
137 138 2
137 177 2
138 139 4
138 178 5
139 140 3
139 179 2
140 141 3
140 180 5
141 142 2
141 181 4
142 143 1
142 182 1
143 144 1
143 183 3
144 145 2
144 184 4
145 146 2
145 185 2
146 147 5
146 186 2
147 148 4
147 187 2
148 149 1
148 188 2
149 150 5
149 189 1
150 151 2
150 190 3
151 152 2
151 191 1
152 153 5
152 192 3
153 154 4
153 193 4
154 155 2
154 194 1
155 156 3
155 195 3
156 157 1
156 196 2
157 158 2
157 197 4
158 159 1
158 198 2
159 160 4
159 199 2
160 200 5
161 162 4
161 201 1
162 163 3
162 202 2
163 164 3
163 203 5
164 165 5
164 204 5
165 166 2
165 205 2
166 167 4
166 206 3
167 168 3
167 207 5
168 169 1
168 208 3
169 170 3
169 209 2
170 171 3
170 210 1
171 172 1
171 211 2
172 173 3
172 212 1
173 174 3
173 213 5
174 175 4
174 214 3
175 176 2
175 215 1
176 177 5
176 216 1
177 178 3
177 217 1
178 179 1
178 218 5
179 180 2
179 219 2
180 181 1
180 220 2
181 182 4
181 221 2
182 183 4
182 222 5
183 184 5
183 223 3
184 185 4
184 224 4
185 186 3
185 225 3
186 187 3
186 226 2
187 188 4
187 227 1
188 189 3
188 228 3
189 190 3
189 229 4
190 191 5
190 230 2
191 192 3
191 231 3
192 193 5
192 232 4
193 194 4
193 233 5
194 195 5
194 234 4
195 196 4
195 235 3
196 197 5
196 236 5
197 198 4
197 237 5
198 199 3
198 238 3
199 200 2
199 239 5
200 240 5
201 202 4
201 241 4
202 203 1
202 242 4
203 204 2
203 243 4
204 205 3
204 244 4
205 206 2
205 245 2
206 207 4
206 246 3
207 208 5
207 247 4
208 209 1
208 248 1
209 210 2
209 249 4
210 211 1
210 250 2
211 212 1
211 251 4
212 213 4
212 252 1
213 214 2
213 253 3
214 215 3
214 254 2
215 216 3
215 255 4
216 217 2
216 256 3
217 218 1
217 257 3
218 219 2
218 258 1
219 220 5
219 259 2
220 221 2
220 260 5
221 222 4
221 261 1
222 223 2
222 262 3
223 224 5
223 263 3
224 225 3
224 264 2
225 226 3
225 265 4
226 227 1
226 266 4
227 228 2
227 267 5
228 229 5
228 268 2
229 230 5
229 269 1
230 231 4
230 270 1
231 232 4
231 271 2
232 233 4
232 272 5
233 234 2
233 273 4
234 235 2
234 274 5
235 236 5
235 275 5
236 237 1
236 276 3
237 238 3
237 277 4
238 239 4
238 278 2
239 240 1
239 279 5
240 280 2
241 242 3
241 281 4
242 243 3
242 282 5
243 244 5
243 283 3
244 245 2
244 284 2
245 246 5
245 285 3
246 247 3
246 286 2
247 248 2
247 287 5
248 249 3
248 288 2
249 250 2
249 289 2
250 251 3
250 290 2
251 252 3
251 291 4
252 253 3
252 292 3
253 254 5
253 293 4
254 255 4
254 294 4
255 256 5
255 295 2
256 257 3
256 296 1
257 258 2
257 297 5
258 259 3
258 298 3
259 260 1
259 299 2
260 261 2
260 300 4
261 262 5
261 301 2
262 263 4
262 302 2
263 264 2
263 303 2
264 265 4
264 304 3
265 266 5
265 305 3
266 267 1
266 306 4
267 268 5
267 307 5
268 269 1
268 308 5
269 270 2
269 309 1
270 271 3
270 310 4
271 272 3
271 311 5
272 273 1
272 312 3
273 274 4
273 313 4
274 275 3
274 314 1
275 276 5
275 315 3
276 277 4
276 316 4
277 278 5
277 317 2
278 279 3
278 318 3
279 280 4
279 319 1
280 320 3
281 282 2
281 321 1
282 283 1
282 322 5
283 284 1
283 323 2
284 285 4
284 324 3
285 286 5
285 325 2
286 287 5
286 326 3
287 288 1
287 327 4
288 289 2
288 328 3
289 290 1
289 329 2
290 291 4
290 330 2
291 292 1
291 331 2
292 293 3
292 332 5
293 294 2
293 333 1
294 295 2
294 334 2
295 296 2
295 335 1
296 297 4
296 336 1
297 298 2
297 337 2
298 299 5
298 338 4
299 300 2
299 339 3
300 301 1
300 340 4
301 302 2
301 341 1
302 303 4
302 342 2
303 304 3
303 343 4
304 305 2
304 344 1
305 306 3
305 345 3
306 307 4
306 346 5
307 308 3
307 347 3
308 309 2
308 348 5
309 310 3
309 349 2
310 311 5
310 350 2
311 312 5
311 351 5
312 313 5
312 352 3
313 314 1
313 353 3
314 315 2
314 354 1
315 316 1
315 355 4
316 317 2
316 356 4
317 318 4
317 357 5
318 319 4
318 358 4
319 320 5
319 359 5
320 360 1
321 322 1
321 361 3
322 323 4
322 362 5
323 324 4
323 363 1
324 325 3
324 364 4
325 326 4
325 365 3
326 327 3
326 366 3
327 328 5
327 367 1
328 329 1
328 368 2
329 330 5
329 369 5
330 331 4
330 370 5
331 332 5
331 371 5
332 333 1
332 372 2
333 334 1
333 373 1
334 335 1
334 374 1
335 336 3
335 375 3
336 337 4
336 376 3
337 338 1
337 377 2
338 339 3
338 378 2
339 340 5
339 379 4
340 341 1
340 380 4
341 342 5
341 381 4
342 343 1
342 382 5
343 344 4
343 383 5
344 345 2
344 384 3
345 346 4
345 385 4
346 347 5
346 386 5
347 348 5
347 387 1
348 349 5
348 388 3
349 350 4
349 389 5
350 351 4
350 390 5
351 352 3
351 391 1
352 353 2
352 392 1
353 354 3
353 393 5
354 355 4
354 394 3
355 356 4
355 395 4
356 357 2
356 396 3
357 358 3
357 397 5
358 359 5
358 398 4
359 360 3
359 399 4
360 400 3
361 362 4
361 401 3
362 363 2
362 402 2
363 364 4
363 403 2
364 365 5
364 404 5
365 366 2
365 405 3
366 367 5
366 406 5
367 368 1
367 407 1
368 369 4
368 408 3
369 370 2
369 409 1
370 371 3
370 410 5
371 372 1
371 411 5
372 373 4
372 412 5
373 374 3
373 413 5
374 375 5
374 414 1
375 376 1
375 415 4
376 377 2
376 416 1
377 378 2
377 417 4
378 379 1
378 418 5
379 380 1
379 419 1
380 381 5
380 420 1
381 382 2
381 421 5
382 383 2
382 422 2
383 384 4
383 423 4
384 385 2
384 424 4
385 386 4
385 425 5
386 387 4
386 426 5
387 388 2
387 427 1
388 389 1
388 428 4
389 390 4
389 429 4
390 391 2
390 430 2
391 392 3
391 431 2
392 393 3
392 432 2
393 394 5
393 433 5
394 395 1
394 434 3
395 396 4
395 435 4
396 397 2
396 436 3
397 398 3
397 437 4
398 399 5
398 438 3
399 400 1
399 439 2
400 440 3
401 402 3
401 441 1
402 403 4
402 442 3
403 404 5
403 443 4
404 405 4
404 444 2
405 406 5
405 445 3
406 407 2
406 446 2
407 408 4
407 447 5
408 409 3
408 448 3
409 410 5
409 449 5
410 411 5
410 450 3
411 412 3
411 451 5
412 413 1
412 452 5
413 414 2
413 453 3
414 415 1
414 454 1
415 416 4
415 455 4
416 417 5
416 456 1
417 418 2
417 457 5
418 419 5
418 458 2
419 420 5
419 459 4
420 421 4
420 460 2
421 422 3
421 461 5
422 423 4
422 462 4
423 424 3
423 463 3
424 425 1
424 464 4
425 426 4
425 465 1
426 427 1
426 466 5
427 428 2
427 467 1
428 429 2
428 468 2
429 430 1
429 469 1
430 431 5
430 470 3
431 432 1
431 471 5
432 433 2
432 472 4
433 434 4
433 473 4
434 435 2
434 474 1
435 436 2
435 475 4
436 437 1
436 476 3
437 438 3
437 477 2
438 439 5
438 478 5
439 440 1
439 479 4
440 480 2
441 442 3
441 481 2
442 443 3
442 482 4
443 444 1
443 483 3
444 445 2
444 484 1
445 446 3
445 485 4
446 447 2
446 486 5
447 448 3
447 487 1
448 449 3
448 488 1
449 450 2
449 489 4
450 451 1
450 490 3
451 452 5
451 491 2
452 453 4
452 492 5
453 454 4
453 493 5
454 455 2
454 494 5
455 456 4
455 495 3
456 457 4
456 496 4
457 458 1
457 497 1
458 459 1
458 498 3
459 460 3
459 499 4
460 461 4
460 500 3
461 462 1
461 501 4
462 463 1
462 502 3
463 464 2
463 503 5
464 465 5
464 504 3
465 466 3
465 505 5
466 467 5
466 506 1
467 468 3
467 507 4
468 469 1
468 508 1
469 470 5
469 509 3
470 471 2
470 510 4
471 472 5
471 511 1
472 473 3
472 512 5
473 474 4
473 513 1
474 475 5
474 514 3
475 476 4
475 515 4
476 477 5
476 516 1
477 478 1
477 517 2
478 479 5
478 518 5
479 480 5
479 519 4
480 520 5
481 482 3
481 521 2
482 483 1
482 522 1
483 484 5
483 523 4
484 485 5
484 524 2
485 486 2
485 525 3
486 487 2
486 526 4
487 488 4
487 527 4
488 489 4
488 528 4
489 490 3
489 529 4
490 491 1
490 530 2
491 492 5
491 531 2
492 493 1
492 532 3
493 494 5
493 533 2
494 495 3
494 534 2
495 496 1
495 535 1
496 497 5
496 536 2
497 498 4
497 537 5
498 499 4
498 538 4
499 500 2
499 539 5
500 501 3
500 540 3
501 502 3
501 541 1
502 503 2
502 542 1
503 504 5
503 543 4
504 505 1
504 544 5
505 506 3
505 545 5
506 507 5
506 546 4
507 508 3
507 547 5
508 509 2
508 548 5
509 510 5
509 549 5
510 511 2
510 550 2
511 512 4
511 551 3
512 513 2
512 552 2
513 514 1
513 553 2
514 515 1
514 554 4
515 516 2
515 555 3
516 517 3
516 556 2
517 518 3
517 557 2
518 519 4
518 558 3
519 520 2
519 559 4
520 560 3
521 522 4
521 561 5
522 523 1
522 562 2
523 524 1
523 563 4
524 525 4
524 564 3
525 526 3
525 565 3
526 527 3
526 566 2
527 528 2
527 567 1
528 529 5
528 568 1
529 530 2
529 569 4
530 531 1
530 570 4
531 532 4
531 571 1
532 533 4
532 572 4
533 534 5
533 573 1
534 535 3
534 574 5
535 536 4
535 575 3
536 537 2
536 576 1
537 538 2
537 577 4
538 539 5
538 578 1
539 540 2
539 579 2
540 541 3
540 580 3
541 542 3
541 581 1
542 543 1
542 582 2
543 544 4
543 583 2
544 545 2
544 584 4
545 546 5
545 585 3
546 547 4
546 586 2
547 548 5
547 587 4
548 549 1
548 588 3
549 550 1
549 589 1
550 551 5
550 590 3
551 552 4
551 591 5
552 553 5
552 592 4
553 554 3
553 593 1
554 555 3
554 594 1
555 556 2
555 595 3
556 557 2
556 596 3
557 558 4
557 597 3
558 559 4
558 598 5
559 560 5
559 599 4
560 600 2
561 562 4
561 601 4
562 563 1
562 602 4
563 564 3
563 603 2
564 565 5
564 604 5
565 566 5
565 605 3
566 567 2
566 606 2
567 568 3
567 607 4
568 569 2
568 608 5
569 570 2
569 609 3
570 571 5
570 610 1
571 572 1
571 611 1
572 573 2
572 612 2
573 574 5
573 613 2
574 575 4
574 614 4
575 576 2
575 615 4
576 577 2
576 616 1
577 578 3
577 617 4
578 579 1
578 618 4
579 580 2
579 619 3
580 581 4
580 620 4
581 582 5
581 621 5
582 583 1
582 622 2
583 584 1
583 623 5
584 585 4
584 624 3
585 586 1
585 625 2
586 587 2
586 626 3
587 588 1
587 627 3
588 589 3
588 628 5
589 590 1
589 629 5
590 591 4
590 630 3
591 592 2
591 631 3
592 593 3
592 632 3
593 594 1
593 633 5
594 595 1
594 634 4
595 596 4
595 635 4
596 597 2
596 636 1
597 598 3
597 637 1
598 599 4
598 638 3
599 600 3
599 639 4
600 640 4
601 602 2
601 641 3
602 603 4
602 642 4
603 604 1
603 643 2
604 605 3
604 644 1
605 606 5
605 645 3
606 607 1
606 646 2
607 608 5
607 647 5
608 609 2
608 648 5
609 610 2
609 649 3
610 611 1
610 650 5
611 612 4
611 651 5
612 613 1
612 652 1
613 614 4
613 653 5
614 615 2
614 654 5
615 616 2
615 655 2
616 617 2
616 656 4
617 618 4
617 657 1
618 619 3
618 658 1
619 620 5
619 659 4
620 621 1
620 660 4
621 622 1
621 661 5
622 623 5
622 662 2
623 624 4
623 663 1
624 625 4
624 664 2
625 626 3
625 665 4
626 627 4
626 666 3
627 628 3
627 667 3
628 629 5
628 668 4
629 630 5
629 669 5
630 631 5
630 670 3
631 632 5
631 671 1
632 633 5
632 672 5
633 634 5
633 673 1
634 635 3
634 674 2
635 636 5
635 675 3
636 637 4
636 676 4
637 638 5
637 677 2
638 639 3
638 678 2
639 640 5
639 679 1
640 680 1
641 642 2
641 681 1
642 643 5
642 682 5
643 644 2
643 683 2
644 645 5
644 684 4
645 646 5
645 685 5
646 647 1
646 686 4
647 648 5
647 687 4
648 649 2
648 688 3
649 650 3
649 689 1
650 651 4
650 690 1
651 652 5
651 691 5
652 653 3
652 692 1
653 654 1
653 693 3
654 655 2
654 694 5
655 656 3
655 695 5
656 657 3
656 696 5
657 658 1
657 697 3
658 659 5
658 698 5
659 660 1
659 699 5
660 661 3
660 700 4
661 662 4
661 701 5
662 663 2
662 702 1
663 664 4
663 703 5
664 665 2
664 704 4
665 666 1
665 705 2
666 667 3
666 706 3
667 668 4
667 707 5
668 669 1
668 708 5
669 670 4
669 709 1
670 671 4
670 710 3
671 672 5
671 711 3
672 673 2
672 712 2
673 674 1
673 713 4
674 675 3
674 714 3
675 676 2
675 715 3
676 677 2
676 716 1
677 678 3
677 717 5
678 679 2
678 718 1
679 680 2
679 719 4
680 720 5
681 682 3
681 721 5
682 683 2
682 722 3
683 684 2
683 723 2
684 685 3
684 724 5
685 686 1
685 725 1
686 687 2
686 726 2
687 688 1
687 727 1
688 689 5
688 728 3
689 690 3
689 729 3
690 691 3
690 730 5
691 692 4
691 731 3
692 693 2
692 732 5
693 694 5
693 733 4
694 695 1
694 734 5
695 696 3
695 735 3
696 697 2
696 736 4
697 698 1
697 737 2
698 699 5
698 738 1
699 700 4
699 739 1
700 701 3
700 740 2
701 702 3
701 741 5
702 703 4
702 742 2
703 704 3
703 743 4
704 705 4
704 744 5
705 706 4
705 745 5
706 707 3
706 746 5
707 708 1
707 747 4
708 709 4
708 748 5
709 710 3
709 749 3
710 711 5
710 750 4
711 712 1
711 751 1
712 713 1
712 752 5
713 714 2
713 753 4
714 715 4
714 754 2
715 716 3
715 755 3
716 717 3
716 756 4
717 718 1
717 757 3
718 719 3
718 758 2
719 720 5
719 759 1
720 760 2
721 722 2
721 761 1
722 723 4
722 762 4
723 724 5
723 763 3
724 725 2
724 764 3
725 726 4
725 765 5
726 727 1
726 766 2
727 728 2
727 767 2
728 729 3
728 768 1
729 730 3
729 769 4
730 731 3
730 770 5
731 732 3
731 771 4
732 733 1
732 772 5
733 734 1
733 773 5
734 735 5
734 774 3
735 736 3
735 775 3
736 737 5
736 776 3
737 738 5
737 777 4
738 739 2
738 778 3
739 740 3
739 779 1
740 741 5
740 780 2
741 742 3
741 781 1
742 743 4
742 782 5
743 744 1
743 783 3
744 745 2
744 784 2
745 746 2
745 785 3
746 747 3
746 786 4
747 748 1
747 787 1
748 749 5
748 788 4
749 750 1
749 789 2
750 751 5
750 790 1
751 752 2
751 791 2
752 753 4
752 792 4
753 754 5
753 793 5
754 755 2
754 794 3
755 756 4
755 795 3
756 757 3
756 796 5
757 758 4
757 797 1
758 759 4
758 798 1
759 760 1
759 799 1
760 800 3
761 762 4
761 801 2
762 763 4
762 802 1
763 764 2
763 803 4
764 765 4
764 804 2
765 766 4
765 805 2
766 767 5
766 806 5
767 768 5
767 807 4
768 769 5
768 808 3
769 770 4
769 809 4
770 771 5
770 810 1
771 772 3
771 811 5
772 773 3
772 812 5
773 774 1
773 813 2
774 775 4
774 814 1
775 776 1
775 815 4
776 777 3
776 816 3
777 778 3
777 817 5
778 779 5
778 818 1
779 780 2
779 819 1
780 781 1
780 820 3
781 782 4
781 821 3
782 783 2
782 822 4
783 784 3
783 823 1
784 785 4
784 824 3
785 786 1
785 825 1
786 787 1
786 826 3
787 788 3
787 827 2
788 789 4
788 828 2
789 790 1
789 829 4
790 791 1
790 830 3
791 792 2
791 831 5
792 793 2
792 832 4
793 794 3
793 833 5
794 795 1
794 834 2
795 796 5
795 835 2
796 797 5
796 836 1
797 798 1
797 837 3
798 799 3
798 838 5
799 800 2
799 839 2
800 840 4
801 802 5
801 841 2
802 803 4
802 842 1
803 804 5
803 843 3
804 805 1
804 844 2
805 806 3
805 845 3
806 807 2
806 846 4
807 808 2
807 847 2
808 809 5
808 848 3
809 810 3
809 849 1
810 811 3
810 850 5
811 812 5
811 851 2
812 813 2
812 852 5
813 814 3
813 853 3
814 815 5
814 854 4
815 816 5
815 855 2
816 817 3
816 856 1
817 818 1
817 857 4
818 819 2
818 858 2
819 820 4
819 859 1
820 821 1
820 860 1
821 822 5
821 861 2
822 823 1
822 862 1
823 824 1
823 863 2
824 825 2
824 864 4
825 826 5
825 865 4
826 827 1
826 866 2
827 828 2
827 867 1
828 829 1
828 868 4
829 830 3
829 869 5
830 831 2
830 870 3
831 832 5
831 871 1
832 833 3
832 872 4
833 834 1
833 873 1
834 835 4
834 874 5
835 836 1
835 875 3
836 837 2
836 876 5
837 838 3
837 877 1
838 839 1
838 878 2
839 840 4
839 879 4
840 880 4
841 842 1
841 881 5
842 843 1
842 882 2
843 844 5
843 883 5
844 845 3
844 884 3
845 846 3
845 885 3
846 847 4
846 886 3
847 848 4
847 887 1
848 849 2
848 888 2
849 850 4
849 889 4
850 851 5
850 890 5
851 852 5
851 891 5
852 853 1
852 892 1
853 854 5
853 893 1
854 855 2
854 894 2
855 856 1
855 895 3
856 857 2
856 896 2
857 858 2
857 897 2
858 859 3
858 898 1
859 860 3
859 899 4
860 861 2
860 900 4
861 862 4
861 901 3
862 863 3
862 902 1
863 864 4
863 903 5
864 865 1
864 904 4
865 866 5
865 905 4
866 867 5
866 906 5
867 868 5
867 907 5
868 869 2
868 908 3
869 870 1
869 909 2
870 871 3
870 910 3
871 872 5
871 911 1
872 873 1
872 912 1
873 874 3
873 913 4
874 875 5
874 914 2
875 876 3
875 915 5
876 877 5
876 916 4
877 878 5
877 917 4
878 879 3
878 918 4
879 880 1
879 919 1
880 920 4
881 882 3
881 921 4
882 883 5
882 922 5
883 884 2
883 923 1
884 885 2
884 924 4
885 886 4
885 925 2
886 887 2
886 926 1
887 888 2
887 927 1
888 889 2
888 928 1
889 890 5
889 929 3
890 891 3
890 930 2
891 892 4
891 931 5
892 893 1
892 932 2
893 894 2
893 933 2
894 895 2
894 934 4
895 896 5
895 935 3
896 897 3
896 936 5
897 898 1
897 937 3
898 899 1
898 938 4
899 900 2
899 939 3
900 901 2
900 940 1
901 902 1
901 941 4
902 903 3
902 942 2
903 904 2
903 943 3
904 905 3
904 944 3
905 906 5
905 945 2
906 907 2
906 946 3
907 908 3
907 947 1
908 909 3
908 948 2
909 910 2
909 949 1
910 911 3
910 950 2
911 912 2
911 951 2
912 913 5
912 952 2
913 914 2
913 953 3
914 915 3
914 954 5
915 916 5
915 955 4
916 917 1
916 956 3
917 918 5
917 957 4
918 919 2
918 958 1
919 920 3
919 959 1
920 960 2
921 922 3
921 961 3
922 923 2
922 962 5
923 924 2
923 963 1
924 925 3
924 964 3
925 926 2
925 965 4
926 927 2
926 966 2
927 928 2
927 967 5
928 929 2
928 968 3
929 930 3
929 969 3
930 931 4
930 970 5
931 932 1
931 971 3
932 933 3
932 972 3
933 934 4
933 973 1
934 935 2
934 974 5
935 936 1
935 975 2
936 937 5
936 976 5
937 938 2
937 977 1
938 939 1
938 978 3
939 940 3
939 979 5
940 941 3
940 980 1
941 942 4
941 981 2
942 943 4
942 982 4
943 944 3
943 983 3
944 945 1
944 984 5
945 946 3
945 985 2
946 947 5
946 986 5
947 948 5
947 987 3
948 949 4
948 988 5
949 950 3
949 989 1
950 951 2
950 990 2
951 952 2
951 991 3
952 953 5
952 992 2
953 954 2
953 993 5
954 955 2
954 994 4
955 956 4
955 995 1
956 957 3
956 996 4
957 958 2
957 997 2
958 959 4
958 998 1
959 960 1
959 999 2
960 1000 4
961 962 3
961 1001 3
962 963 2
962 1002 4
963 964 3
963 1003 1
964 965 5
964 1004 1
965 966 4
965 1005 1
966 967 4
966 1006 2
967 968 1
967 1007 3
968 969 1
968 1008 3
969 970 2
969 1009 4
970 971 1
970 1010 1
971 972 5
971 1011 1
972 973 4
972 1012 2
973 974 2
973 1013 5
974 975 2
974 1014 5
975 976 3
975 1015 3
976 977 3
976 1016 2
977 978 5
977 1017 2
978 979 5
978 1018 4
979 980 3
979 1019 5
980 981 3
980 1020 3
981 982 2
981 1021 4
982 983 5
982 1022 3
983 984 3
983 1023 3
984 985 4
984 1024 4
985 986 3
985 1025 3
986 987 5
986 1026 3
987 988 5
987 1027 3
988 989 5
988 1028 5
989 990 3
989 1029 3
990 991 5
990 1030 4
991 992 3
991 1031 5
992 993 5
992 1032 3
993 994 3
993 1033 2
994 995 2
994 1034 5
995 996 1
995 1035 4
996 997 5
996 1036 1
997 998 5
997 1037 1
998 999 1
998 1038 3
999 1000 3
999 1039 2
1000 1040 3
1001 1002 2
1001 1041 3
1002 1003 3
1002 1042 4
1003 1004 3
1003 1043 1
1004 1005 5
1004 1044 4
1005 1006 5
1005 1045 1
1006 1007 1
1006 1046 4
1007 1008 5
1007 1047 5
1008 1009 4
1008 1048 2
1009 1010 3
1009 1049 3
1010 1011 1
1010 1050 5
1011 1012 1
1011 1051 2
1012 1013 2
1012 1052 5
1013 1014 3
1013 1053 1
1014 1015 1
1014 1054 4
1015 1016 4
1015 1055 4
1016 1017 1
1016 1056 4
1017 1018 5
1017 1057 2
1018 1019 1
1018 1058 2
1019 1020 4
1019 1059 3
1020 1021 1
1020 1060 4
1021 1022 3
1021 1061 3
1022 1023 4
1022 1062 1
1023 1024 3
1023 1063 2
1024 1025 5
1024 1064 1
1025 1026 2
1025 1065 4
1026 1027 4
1026 1066 5
1027 1028 4
1027 1067 3
1028 1029 3
1028 1068 1
1029 1030 3
1029 1069 4
1030 1031 4
1030 1070 1
1031 1032 4
1031 1071 1
1032 1033 3
1032 1072 4
1033 1034 1
1033 1073 5
1034 1035 4
1034 1074 1
1035 1036 5
1035 1075 5
1036 1037 2
1036 1076 1
1037 1038 4
1037 1077 2
1038 1039 5
1038 1078 3
1039 1040 2
1039 1079 3
1040 1080 5
1041 1042 2
1041 1081 5
1042 1043 3
1042 1082 5
1043 1044 5
1043 1083 2
1044 1045 1
1044 1084 1
1045 1046 5
1045 1085 2
1046 1047 2
1046 1086 4
1047 1048 4
1047 1087 3
1048 1049 1
1048 1088 5
1049 1050 2
1049 1089 1
1050 1051 2
1050 1090 3
1051 1052 3
1051 1091 2
1052 1053 4
1052 1092 3
1053 1054 5
1053 1093 4
1054 1055 1
1054 1094 1
1055 1056 3
1055 1095 2
1056 1057 5
1056 1096 1
1057 1058 1
1057 1097 5
1058 1059 4
1058 1098 1
1059 1060 2
1059 1099 4
1060 1061 4
1060 1100 1
1061 1062 1
1061 1101 5
1062 1063 1
1062 1102 1
1063 1064 1
1063 1103 1
1064 1065 2
1064 1104 2
1065 1066 4
1065 1105 4
1066 1067 4
1066 1106 2
1067 1068 1
1067 1107 1
1068 1069 2
1068 1108 2
1069 1070 1
1069 1109 3
1070 1071 1
1070 1110 2
1071 1072 3
1071 1111 1
1072 1073 1
1072 1112 5
1073 1074 1
1073 1113 4
1074 1075 4
1074 1114 3
1075 1076 4
1075 1115 2
1076 1077 4
1076 1116 3
1077 1078 5
1077 1117 4
1078 1079 2
1078 1118 2
1079 1080 3
1079 1119 2
1080 1120 2
1081 1082 2
1081 1121 5
1082 1083 3
1082 1122 2
1083 1084 4
1083 1123 1
1084 1085 4
1084 1124 4
1085 1086 5
1085 1125 5
1086 1087 4
1086 1126 1
1087 1088 3
1087 1127 1
1088 1089 3
1088 1128 5
1089 1090 2
1089 1129 3
1090 1091 2
1090 1130 2
1091 1092 1
1091 1131 4
1092 1093 2
1092 1132 5
1093 1094 5
1093 1133 4
1094 1095 4
1094 1134 2
1095 1096 5
1095 1135 2
1096 1097 1
1096 1136 4
1097 1098 1
1097 1137 2
1098 1099 3
1098 1138 5
1099 1100 5
1099 1139 4
1100 1101 3
1100 1140 5
1101 1102 5
1101 1141 3
1102 1103 2
1102 1142 5
1103 1104 2
1103 1143 5
1104 1105 4
1104 1144 5
1105 1106 1
1105 1145 1
1106 1107 2
1106 1146 4
1107 1108 1
1107 1147 4
1108 1109 5
1108 1148 2
1109 1110 2
1109 1149 2
1110 1111 4
1110 1150 5
1111 1112 1
1111 1151 1
1112 1113 5
1112 1152 4
1113 1114 5
1113 1153 5
1114 1115 3
1114 1154 1
1115 1116 3
1115 1155 1
1116 1117 5
1116 1156 5
1117 1118 4
1117 1157 1
1118 1119 1
1118 1158 4
1119 1120 2
1119 1159 5
1120 1160 2
1121 1122 3
1121 1161 1
1122 1123 4
1122 1162 2
1123 1124 4
1123 1163 4
1124 1125 2
1124 1164 2
1125 1126 1
1125 1165 2
1126 1127 2
1126 1166 4
1127 1128 1
1127 1167 5
1128 1129 1
1128 1168 2
1129 1130 4
1129 1169 2
1130 1131 3
1130 1170 4
1131 1132 4
1131 1171 1
1132 1133 4
1132 1172 4
1133 1134 3
1133 1173 4
1134 1135 1
1134 1174 3
1135 1136 3
1135 1175 1
1136 1137 3
1136 1176 3
1137 1138 4
1137 1177 2
1138 1139 4
1138 1178 1
1139 1140 4
1139 1179 1
1140 1141 3
1140 1180 2
1141 1142 5
1141 1181 1
1142 1143 5
1142 1182 3
1143 1144 1
1143 1183 3
1144 1145 1
1144 1184 3
1145 1146 2
1145 1185 3
1146 1147 1
1146 1186 1
1147 1148 3
1147 1187 1
1148 1149 4
1148 1188 5
1149 1150 3
1149 1189 4
1150 1151 3
1150 1190 3
1151 1152 5
1151 1191 3
1152 1153 5
1152 1192 4
1153 1154 1
1153 1193 5
1154 1155 4
1154 1194 4
1155 1156 4
1155 1195 1
1156 1157 3
1156 1196 5
1157 1158 3
1157 1197 5
1158 1159 4
1158 1198 4
1159 1160 4
1159 1199 1
1160 1200 1
1161 1162 1
1161 1201 3
1162 1163 1
1162 1202 4
1163 1164 3
1163 1203 5
1164 1165 2
1164 1204 1
1165 1166 1
1165 1205 5
1166 1167 1
1166 1206 4
1167 1168 4
1167 1207 2
1168 1169 3
1168 1208 1
1169 1170 5
1169 1209 3
1170 1171 1
1170 1210 1
1171 1172 2
1171 1211 2
1172 1173 2
1172 1212 5
1173 1174 1
1173 1213 5
1174 1175 2
1174 1214 3
1175 1176 4
1175 1215 4
1176 1177 5
1176 1216 2
1177 1178 1
1177 1217 3
1178 1179 4
1178 1218 1
1179 1180 2
1179 1219 2
1180 1181 4
1180 1220 5
1181 1182 4
1181 1221 5
1182 1183 5
1182 1222 5
1183 1184 5
1183 1223 5
1184 1185 1
1184 1224 5
1185 1186 1
1185 1225 3
1186 1187 4
1186 1226 2
1187 1188 4
1187 1227 3
1188 1189 1
1188 1228 3
1189 1190 3
1189 1229 3
1190 1191 2
1190 1230 4
1191 1192 4
1191 1231 4
1192 1193 5
1192 1232 1
1193 1194 2
1193 1233 4
1194 1195 3
1194 1234 5
1195 1196 4
1195 1235 5
1196 1197 1
1196 1236 5
1197 1198 3
1197 1237 1
1198 1199 4
1198 1238 2
1199 1200 2
1199 1239 3
1200 1240 2
1201 1202 2
1201 1241 4
1202 1203 3
1202 1242 3
1203 1204 2
1203 1243 3
1204 1205 4
1204 1244 5
1205 1206 3
1205 1245 5
1206 1207 4
1206 1246 2
1207 1208 4
1207 1247 4
1208 1209 3
1208 1248 5
1209 1210 3
1209 1249 5
1210 1211 1
1210 1250 2
1211 1212 2
1211 1251 4
1212 1213 3
1212 1252 5
1213 1214 2
1213 1253 4
1214 1215 2
1214 1254 3
1215 1216 2
1215 1255 5
1216 1217 4
1216 1256 5
1217 1218 4
1217 1257 2
1218 1219 4
1218 1258 3
1219 1220 4
1219 1259 2
1220 1221 4
1220 1260 5
1221 1222 5
1221 1261 1
1222 1223 2
1222 1262 5
1223 1224 2
1223 1263 2
1224 1225 1
1224 1264 2
1225 1226 5
1225 1265 2
1226 1227 4
1226 1266 2
1227 1228 4
1227 1267 1
1228 1229 2
1228 1268 1
1229 1230 4
1229 1269 2
1230 1231 1
1230 1270 5
1231 1232 1
1231 1271 2
1232 1233 1
1232 1272 2
1233 1234 1
1233 1273 3
1234 1235 2
1234 1274 2
1235 1236 2
1235 1275 5
1236 1237 1
1236 1276 3
1237 1238 4
1237 1277 1
1238 1239 5
1238 1278 3
1239 1240 2
1239 1279 5
1240 1280 1
1241 1242 3
1241 1281 1
1242 1243 3
1242 1282 2
1243 1244 3
1243 1283 3
1244 1245 3
1244 1284 2
1245 1246 3
1245 1285 4
1246 1247 1
1246 1286 3
1247 1248 3
1247 1287 4
1248 1249 4
1248 1288 4
1249 1250 1
1249 1289 1
1250 1251 5
1250 1290 1
1251 1252 5
1251 1291 4
1252 1253 5
1252 1292 5
1253 1254 4
1253 1293 4
1254 1255 3
1254 1294 2
1255 1256 2
1255 1295 4
1256 1257 5
1256 1296 3
1257 1258 3
1257 1297 4
1258 1259 1
1258 1298 3
1259 1260 3
1259 1299 2
1260 1261 5
1260 1300 4
1261 1262 5
1261 1301 4
1262 1263 5
1262 1302 3
1263 1264 1
1263 1303 2
1264 1265 5
1264 1304 4
1265 1266 4
1265 1305 1
1266 1267 4
1266 1306 3
1267 1268 5
1267 1307 2
1268 1269 1
1268 1308 5
1269 1270 3
1269 1309 4
1270 1271 4
1270 1310 1
1271 1272 4
1271 1311 2
1272 1273 3
1272 1312 2
1273 1274 1
1273 1313 2
1274 1275 3
1274 1314 3
1275 1276 1
1275 1315 3
1276 1277 3
1276 1316 3
1277 1278 1
1277 1317 2
1278 1279 4
1278 1318 1
1279 1280 2
1279 1319 2
1280 1320 4
1281 1282 3
1281 1321 1
1282 1283 2
1282 1322 2
1283 1284 2
1283 1323 5
1284 1285 1
1284 1324 3
1285 1286 5
1285 1325 4
1286 1287 3
1286 1326 4
1287 1288 5
1287 1327 4
1288 1289 4
1288 1328 1
1289 1290 3
1289 1329 3
1290 1291 2
1290 1330 1
1291 1292 3
1291 1331 4
1292 1293 4
1292 1332 2
1293 1294 1
1293 1333 5
1294 1295 2
1294 1334 2
1295 1296 3
1295 1335 2
1296 1297 4
1296 1336 3
1297 1298 4
1297 1337 3
1298 1299 3
1298 1338 1
1299 1300 3
1299 1339 5
1300 1301 4
1300 1340 3
1301 1302 2
1301 1341 2
1302 1303 4
1302 1342 1
1303 1304 1
1303 1343 1
1304 1305 4
1304 1344 1
1305 1306 5
1305 1345 1
1306 1307 4
1306 1346 2
1307 1308 5
1307 1347 3
1308 1309 5
1308 1348 2
1309 1310 2
1309 1349 1
1310 1311 1
1310 1350 5
1311 1312 2
1311 1351 2
1312 1313 3
1312 1352 5
1313 1314 1
1313 1353 1
1314 1315 1
1314 1354 2
1315 1316 4
1315 1355 2
1316 1317 4
1316 1356 5
1317 1318 3
1317 1357 2
1318 1319 5
1318 1358 1
1319 1320 2
1319 1359 5
1320 1360 3
1321 1322 2
1321 1361 3
1322 1323 5
1322 1362 1
1323 1324 1
1323 1363 1
1324 1325 3
1324 1364 1
1325 1326 3
1325 1365 3
1326 1327 1
1326 1366 4
1327 1328 5
1327 1367 5
1328 1329 3
1328 1368 4
1329 1330 1
1329 1369 3
1330 1331 4
1330 1370 4
1331 1332 4
1331 1371 4
1332 1333 2
1332 1372 3
1333 1334 3
1333 1373 4
1334 1335 4
1334 1374 1
1335 1336 1
1335 1375 1
1336 1337 2
1336 1376 1
1337 1338 2
1337 1377 5
1338 1339 5
1338 1378 1
1339 1340 2
1339 1379 3
1340 1341 2
1340 1380 4
1341 1342 2
1341 1381 3
1342 1343 2
1342 1382 5
1343 1344 1
1343 1383 3
1344 1345 2
1344 1384 3
1345 1346 5
1345 1385 3
1346 1347 4
1346 1386 5
1347 1348 3
1347 1387 5
1348 1349 3
1348 1388 1
1349 1350 4
1349 1389 4
1350 1351 5
1350 1390 1
1351 1352 3
1351 1391 5
1352 1353 4
1352 1392 3
1353 1354 1
1353 1393 3
1354 1355 1
1354 1394 1
1355 1356 5
1355 1395 3
1356 1357 2
1356 1396 1
1357 1358 3
1357 1397 2
1358 1359 3
1358 1398 2
1359 1360 3
1359 1399 5
1360 1400 4
1361 1362 2
1361 1401 3
1362 1363 4
1362 1402 4
1363 1364 1
1363 1403 1
1364 1365 5
1364 1404 3
1365 1366 5
1365 1405 2
1366 1367 1
1366 1406 1
1367 1368 5
1367 1407 2
1368 1369 3
1368 1408 5
1369 1370 1
1369 1409 5
1370 1371 4
1370 1410 1
1371 1372 4
1371 1411 4
1372 1373 5
1372 1412 2
1373 1374 5
1373 1413 1
1374 1375 4
1374 1414 4
1375 1376 2
1375 1415 3
1376 1377 2
1376 1416 3
1377 1378 2
1377 1417 5
1378 1379 2
1378 1418 1
1379 1380 1
1379 1419 5
1380 1381 2
1380 1420 3
1381 1382 5
1381 1421 5
1382 1383 5
1382 1422 3
1383 1384 4
1383 1423 4
1384 1385 2
1384 1424 1
1385 1386 5
1385 1425 2
1386 1387 2
1386 1426 2
1387 1388 4
1387 1427 4
1388 1389 3
1388 1428 3
1389 1390 4
1389 1429 2
1390 1391 4
1390 1430 1
1391 1392 1
1391 1431 1
1392 1393 1
1392 1432 1
1393 1394 1
1393 1433 2
1394 1395 5
1394 1434 5
1395 1396 5
1395 1435 1
1396 1397 5
1396 1436 2
1397 1398 5
1397 1437 3
1398 1399 4
1398 1438 3
1399 1400 5
1399 1439 1
1400 1440 3
1401 1402 2
1401 1441 3
1402 1403 2
1402 1442 1
1403 1404 2
1403 1443 1
1404 1405 3
1404 1444 2
1405 1406 1
1405 1445 1
1406 1407 5
1406 1446 2
1407 1408 5
1407 1447 4
1408 1409 5
1408 1448 5
1409 1410 1
1409 1449 1
1410 1411 1
1410 1450 4
1411 1412 2
1411 1451 1
1412 1413 4
1412 1452 4
1413 1414 3
1413 1453 2
1414 1415 3
1414 1454 1
1415 1416 1
1415 1455 2
1416 1417 4
1416 1456 3
1417 1418 5
1417 1457 3
1418 1419 3
1418 1458 5
1419 1420 2
1419 1459 4
1420 1421 4
1420 1460 1
1421 1422 1
1421 1461 1
1422 1423 1
1422 1462 4
1423 1424 2
1423 1463 4
1424 1425 4
1424 1464 3
1425 1426 5
1425 1465 1
1426 1427 5
1426 1466 3
1427 1428 2
1427 1467 1
1428 1429 4
1428 1468 1
1429 1430 5
1429 1469 2
1430 1431 1
1430 1470 5
1431 1432 4
1431 1471 3
1432 1433 3
1432 1472 2
1433 1434 5
1433 1473 3
1434 1435 2
1434 1474 1
1435 1436 4
1435 1475 5
1436 1437 4
1436 1476 2
1437 1438 5
1437 1477 3
1438 1439 3
1438 1478 4
1439 1440 2
1439 1479 5
1440 1480 4
1441 1442 1
1441 1481 2
1442 1443 2
1442 1482 2
1443 1444 4
1443 1483 2
1444 1445 5
1444 1484 5
1445 1446 3
1445 1485 3
1446 1447 4
1446 1486 5
1447 1448 5
1447 1487 4
1448 1449 2
1448 1488 5
1449 1450 5
1449 1489 2
1450 1451 5
1450 1490 1
1451 1452 5
1451 1491 2
1452 1453 1
1452 1492 3
1453 1454 3
1453 1493 2
1454 1455 5
1454 1494 3
1455 1456 4
1455 1495 2
1456 1457 2
1456 1496 2
1457 1458 2
1457 1497 4
1458 1459 3
1458 1498 1
1459 1460 5
1459 1499 4
1460 1461 3
1460 1500 3
1461 1462 5
1461 1501 2
1462 1463 4
1462 1502 4
1463 1464 2
1463 1503 3
1464 1465 5
1464 1504 4
1465 1466 4
1465 1505 2
1466 1467 4
1466 1506 4
1467 1468 2
1467 1507 3
1468 1469 4
1468 1508 1
1469 1470 3
1469 1509 5
1470 1471 3
1470 1510 1
1471 1472 3
1471 1511 2
1472 1473 1
1472 1512 3
1473 1474 3
1473 1513 5
1474 1475 5
1474 1514 4
1475 1476 3
1475 1515 3
1476 1477 4
1476 1516 1
1477 1478 5
1477 1517 5
1478 1479 1
1478 1518 1
1479 1480 1
1479 1519 3
1480 1520 1
1481 1482 1
1481 1521 5
1482 1483 3
1482 1522 5
1483 1484 3
1483 1523 2
1484 1485 4
1484 1524 2
1485 1486 4
1485 1525 2
1486 1487 2
1486 1526 5
1487 1488 2
1487 1527 1
1488 1489 3
1488 1528 1
1489 1490 3
1489 1529 2
1490 1491 2
1490 1530 4
1491 1492 1
1491 1531 3
1492 1493 1
1492 1532 5
1493 1494 1
1493 1533 1
1494 1495 1
1494 1534 5
1495 1496 1
1495 1535 2
1496 1497 3
1496 1536 1
1497 1498 4
1497 1537 5
1498 1499 4
1498 1538 4
1499 1500 5
1499 1539 4
1500 1501 4
1500 1540 3
1501 1502 1
1501 1541 5
1502 1503 1
1502 1542 4
1503 1504 5
1503 1543 1
1504 1505 5
1504 1544 5
1505 1506 5
1505 1545 4
1506 1507 1
1506 1546 5
1507 1508 4
1507 1547 3
1508 1509 2
1508 1548 3
1509 1510 4
1509 1549 5
1510 1511 4
1510 1550 2
1511 1512 5
1511 1551 2
1512 1513 4
1512 1552 1
1513 1514 3
1513 1553 5
1514 1515 4
1514 1554 5
1515 1516 1
1515 1555 3
1516 1517 1
1516 1556 3
1517 1518 5
1517 1557 4
1518 1519 3
1518 1558 2
1519 1520 2
1519 1559 4
1520 1560 1
1521 1522 3
1521 1561 2
1522 1523 2
1522 1562 3
1523 1524 5
1523 1563 2
1524 1525 4
1524 1564 5
1525 1526 2
1525 1565 4
1526 1527 2
1526 1566 1
1527 1528 3
1527 1567 1
1528 1529 4
1528 1568 4
1529 1530 1
1529 1569 4
1530 1531 1
1530 1570 3
1531 1532 1
1531 1571 3
1532 1533 2
1532 1572 2
1533 1534 1
1533 1573 2
1534 1535 5
1534 1574 3
1535 1536 4
1535 1575 3
1536 1537 5
1536 1576 1
1537 1538 4
1537 1577 5
1538 1539 2
1538 1578 4
1539 1540 3
1539 1579 4
1540 1541 2
1540 1580 4
1541 1542 3
1541 1581 3
1542 1543 2
1542 1582 1
1543 1544 1
1543 1583 2
1544 1545 5
1544 1584 5
1545 1546 1
1545 1585 2
1546 1547 4
1546 1586 5
1547 1548 4
1547 1587 5
1548 1549 2
1548 1588 1
1549 1550 2
1549 1589 2
1550 1551 1
1550 1590 5
1551 1552 3
1551 1591 1
1552 1553 3
1552 1592 5
1553 1554 3
1553 1593 2
1554 1555 2
1554 1594 1
1555 1556 2
1555 1595 3
1556 1557 3
1556 1596 5
1557 1558 1
1557 1597 4
1558 1559 2
1558 1598 2
1559 1560 1
1559 1599 3
1560 1600 5
1561 1562 1
1562 1563 4
1563 1564 3
1564 1565 3
1565 1566 5
1566 1567 4
1567 1568 5
1568 1569 1
1569 1570 1
1570 1571 1
1571 1572 1
1572 1573 4
1573 1574 2
1574 1575 5
1575 1576 1
1576 1577 4
1577 1578 4
1578 1579 1
1579 1580 1
1580 1581 2
1581 1582 2
1582 1583 2
1583 1584 1
1584 1585 3
1585 1586 1
1586 1587 4
1587 1588 2
1588 1589 5
1589 1590 2
1590 1591 5
1591 1592 3
1592 1593 3
1593 1594 1
1594 1595 3
1595 1596 4
1596 1597 5
1597 1598 3
1598 1599 3
1599 1600 4
1 1561 2
2 1562 1
3 1563 1
4 1564 2
5 1565 5
6 1566 5
7 1567 5
8 1568 3
9 1569 3
10 1570 3
11 1571 2
12 1572 5
13 1573 1
14 1574 3
15 1575 1
16 1576 1
17 1577 1
18 1578 1
19 1579 2
20 1580 5
21 1581 3
22 1582 5
23 1583 1
24 1584 4
25 1585 3
26 1586 2
27 1587 2
28 1588 1
29 1589 4
30 1590 3
31 1591 5
32 1592 5
33 1593 3
34 1594 4
35 1595 5
36 1596 2
37 1597 3
38 1598 3
39 1599 1
40 1600 5
1 40 4
41 80 3
81 120 2
121 160 5
161 200 5
201 240 4
241 280 5
281 320 4
321 360 3
361 400 4
401 440 3
441 480 1
481 520 5
521 560 2
561 600 2
601 640 1
641 680 1
681 720 1
721 760 1
761 800 4
801 840 5
841 880 2
881 920 1
921 960 1
961 1000 2
1001 1040 3
1041 1080 2
1081 1120 1
1121 1160 1
1161 1200 4
1201 1240 5
1241 1280 3
1281 1320 4
1321 1360 3
1361 1400 2
1401 1440 3
1441 1480 3
1481 1520 3
1521 1560 1
1561 1600 2
